
Gurobi 12.0.2 (mac64[arm]) logging started Mon Jun 16 00:35:34 2025

Set parameter LogFile to value "/Users/yurunfeng/Documents/GitHub/LRGTS-store-location/result/gurobi/snyder/88nodes/88-0.95-3.log"
Gurobi Optimizer version 12.0.2 build v12.0.2rc0 (mac64[arm] - Darwin 24.5.0 24F74)

CPU model: Apple M4
Thread count: 10 physical cores, 10 logical processors, using up to 10 threads

Non-default parameters:
TimeLimit  1200

Optimize a model with 15840 rows, 23584 columns and 399606 nonzeros
Model fingerprint: 0x1f31d20e
Variable types: 0 continuous, 23584 integer (23584 binary)
Coefficient statistics:
  Matrix range     [1e+00, 1e+00]
  Objective range  [2e-01, 7e+06]
  Bounds range     [1e+00, 1e+00]
  RHS range        [1e+00, 1e+00]
Found heuristic solution: objective 4.484057e+07
Presolve removed 176 rows and 7832 columns
Presolve time: 0.38s
Presolved: 15664 rows, 15752 columns, 383678 nonzeros
Variable types: 0 continuous, 15752 integer (15752 binary)
Deterministic concurrent LP optimizer: primal and dual simplex
Showing primal log only...

Concurrent spin time: 0.00s

Solved with dual simplex

Root relaxation: objective 1.529840e+06, 2077 iterations, 0.04 seconds (0.13 work units)

    Nodes    |    Current Node    |     Objective Bounds      |     Work
 Expl Unexpl |  Obj  Depth IntInf | Incumbent    BestBd   Gap | It/Node Time

*    0     0               0    1529839.5836 1529839.58  0.00%     -    0s

Explored 1 nodes (2077 simplex iterations) in 0.49 seconds (1.64 work units)
Thread count was 10 (of 10 available processors)

Solution count 2: 1.52984e+06 4.48406e+07 

Optimal solution found (tolerance 1.00e-04)
Best objective 1.529839583552e+06, best bound 1.529839583552e+06, gap 0.0000%
